HUN,8,6,506
4,25,3,28,1,30,5,30,0,27,2,24
1,23,5,28,4,22,0,21,3,26,2,25
0,23,1,23,5,27,4,28,2,22,3,24
4,26,5,28,3,22,2,25,0,24,1,30
2,21,0,28,4,27,1,22,5,21,3,21
4,30,5,22,1,26,2,30,3,27,0,28
5,22,1,29,4,25,3,27,2,25,0,22
5,26,0,23,4,21,3,29,2,25,1,24
